c ind 100 107 109 111 113 118 120 122 16 17 0
c ind 177 179 181 183 20 21 214 239 24 251 0
c ind 255 26 27 271 275 292 297 301 319 323 0
c ind 342 349 36 365 372 38 388 392 40 410 0
c ind 414 42 44 52 86 94 96 98 0
p cnf 427 1592
-1 2 0
-1 406 0
-10 11 0
-10 170 0
-101 -29 102 0
-101 29 127 0
-102 -103 114 0
-102 103 134 0
-103 104 0
-103 112 0
-104 105 0
-104 110 0
-105 106 0
-105 108 0
-106 -107 27 0
-106 -27 107 0
-108 -109 27 0
-108 -27 109 0
-11 12 0
-11 88 0
-110 -111 27 0
-110 -27 111 0
-112 -113 27 0
-112 -27 113 0
-114 -115 123 0
-114 115 127 0
-115 116 0
-115 121 0
-116 117 0
-116 119 0
-117 -118 24 0
-117 -24 118 0
-119 -120 24 0
-119 -24 120 0
-12 -13 22 0
-12 13 43 0
-121 -122 24 0
-121 -24 122 0
-123 124 0
-123 99 0
-124 125 0
-124 97 0
-125 126 0
-125 93 0
-126 -24 96 0
-126 -96 24 0
-127 128 0
-127 133 0
-128 129 0
-128 132 0
-129 130 0
-129 131 0
-13 14 18 0
-130 -107 94 0
-130 -94 107 0
-131 -109 96 0
-131 -96 109 0
-132 -111 98 0
-132 -98 111 0
-133 -100 113 0
-133 -113 100 0
-134 -135 139 0
-134 135 144 0
-135 112 0
-135 136 0
-136 110 0
-136 137 0
-137 106 0
-137 138 0
-138 -109 24 0
-138 -24 109 0
-139 -140 141 0
-139 140 127 0
-14 -15 0
-140 -120 27 0
-140 -27 120 0
-141 142 0
-141 99 0
-142 143 0
-142 92 0
-143 -24 98 0
-143 -98 24 0
-144 -145 148 0
-144 145 155 0
-145 112 0
-145 146 0
-146 105 0
-146 147 0
-147 -111 24 0
-147 -24 111 0
-148 -149 151 0
-148 149 127 0
-149 116 0
-149 150 0
-15 -16 17 0
-15 -17 16 0
-150 -122 27 0
-150 -27 122 0
-151 152 0
-151 99 0
-152 153 0
-152 97 0
-153 126 0
-153 154 0
-154 -24 94 0
-154 -94 24 0
-155 -156 160 0
-155 156 164 0
-156 112 0
-156 157 0
-157 110 0
-157 158 0
-158 138 0
-158 159 0
-159 -107 24 0
-159 -24 107 0
-160 -140 161 0
-160 140 127 0
-161 162 0
-161 99 0
-162 163 0
-162 97 0
-163 154 0
-163 95 0
-164 -165 168 0
-164 165 127 0
-165 112 0
-165 166 0
-166 110 0
-166 167 0
-167 108 0
-167 159 0
-168 -169 90 0
-168 169 127 0
-169 -24 44 0
-169 -44 24 0
-170 171 0
-170 236 0
-171 -13 172 0
-171 13 196 0
-172 -23 173 0
-172 23 184 0
-173 174 0
-173 182 0
-174 175 0
-174 180 0
-175 176 0
-175 178 0
-176 -177 27 0
-176 -27 177 0
-178 -179 27 0
-178 -27 179 0
-18 -19 0
-180 -181 27 0
-180 -27 181 0
-182 -183 27 0
-182 -27 183 0
-184 -29 185 0
-184 29 196 0
-185 -32 186 0
-185 32 190 0
-186 182 0
-186 187 0
-187 180 0
-187 188 0
-188 178 0
-188 189 0
-189 -177 24 0
-189 -24 177 0
-19 -20 21 0
-19 -21 20 0
-190 -46 191 0
-190 46 203 0
-191 -51 192 0
-191 51 196 0
-192 182 0
-192 193 0
-193 180 0
-193 194 0
-194 176 0
-194 195 0
-195 -179 24 0
-195 -24 179 0
-196 197 0
-196 202 0
-197 198 0
-197 201 0
-198 199 0
-198 200 0
-199 -177 36 0
-199 -36 177 0
-2 3 0
-2 384 0
-200 -179 38 0
-200 -38 179 0
-201 -181 40 0
-201 -40 181 0
-202 -183 42 0
-202 -42 183 0
-203 -54 204 0
-203 54 207 0
-204 182 0
-204 205 0
-205 180 0
-205 206 0
-206 189 0
-206 195 0
-207 -59 208 0
-207 59 211 0
-208 182 0
-208 209 0
-209 175 0
-209 210 0
-210 -181 24 0
-210 -24 181 0
-211 -63 212 0
-211 63 217 0
-212 -213 215 0
-212 213 196 0
-213 -214 24 0
-213 -24 214 0
-215 182 0
-215 216 0
-216 188 0
-216 210 0
-217 -67 218 0
-217 67 220 0
-218 193 0
-218 219 0
-219 -183 24 0
-219 -24 183 0
-22 -23 25 0
-22 23 28 0
-220 -70 221 0
-220 70 224 0
-221 -85 222 0
-221 85 196 0
-222 182 0
-222 223 0
-223 194 0
-223 210 0
-224 -73 225 0
-224 73 227 0
-225 182 0
-225 226 0
-226 206 0
-226 210 0
-227 -76 228 0
-227 76 229 0
-228 174 0
-228 219 0
-229 -79 230 0
-229 79 232 0
-23 -20 24 0
-23 -24 20 0
-230 -213 231 0
-230 213 196 0
-231 187 0
-231 219 0
-232 -81 233 0
-232 81 234 0
-233 205 0
-233 219 0
-234 -83 235 0
-234 83 196 0
-235 -85 173 0
-235 85 196 0
-236 -13 237 0
-236 13 242 0
-237 -23 238 0
-237 23 240 0
-238 -239 27 0
-238 -27 239 0
-240 -29 241 0
-240 29 242 0
-241 -103 242 0
-241 103 243 0
-242 -239 52 0
-242 -52 239 0
-243 -135 242 0
-243 135 244 0
-244 -145 242 0
-244 145 245 0
-245 -156 246 0
-245 156 247 0
-246 -239 24 0
-246 -24 239 0
-247 -165 238 0
-247 165 242 0
-248 -13 249 0
-248 13 254 0
-249 -23 250 0
-249 23 252 0
-25 -26 27 0
-25 -27 26 0
-250 -251 27 0
-250 -27 251 0
-252 -29 253 0
-252 29 254 0
-253 -32 254 0
-253 32 256 0
-254 -251 255 0
-254 -255 251 0
-256 -46 254 0
-256 46 257 0
-257 -54 254 0
-257 54 258 0
-258 -59 254 0
-258 59 259 0
-259 -63 254 0
-259 63 260 0
-260 -67 254 0
-260 67 261 0
-261 -70 254 0
-261 70 262 0
-262 -73 254 0
-262 73 263 0
-263 -76 254 0
-263 76 264 0
-264 -79 254 0
-264 79 265 0
-265 -81 266 0
-265 81 250 0
-266 -24 251 0
-266 -251 24 0
-267 10 0
-267 268 0
-268 -13 269 0
-268 13 274 0
-269 -23 270 0
-269 23 272 0
-27 0
-270 -27 271 0
-270 -271 27 0
-272 -29 273 0
-272 29 274 0
-273 -32 274 0
-273 32 276 0
-274 -271 275 0
-274 -275 271 0
-276 -46 274 0
-276 46 277 0
-277 -54 274 0
-277 54 278 0
-278 -59 274 0
-278 59 279 0
-279 -63 274 0
-279 63 280 0
-28 -29 31 0
-28 29 43 0
-280 -67 281 0
-280 67 282 0
-281 -24 271 0
-281 -271 24 0
-282 -70 270 0
-282 70 283 0
-283 -73 274 0
-283 73 284 0
-284 -76 274 0
-284 76 285 0
-285 -79 274 0
-285 79 286 0
-286 -81 274 0
-286 81 287 0
-287 -83 274 0
-287 83 270 0
-288 236 0
-288 289 0
-289 11 0
-289 290 0
-29 14 0
-29 30 0
-290 171 0
-290 291 0
-291 -239 292 0
-291 -292 239 0
-293 10 0
-293 294 0
-294 -13 295 0
-294 13 300 0
-295 -23 296 0
-295 23 298 0
-296 -27 297 0
-296 -297 27 0
-298 -29 299 0
-298 29 300 0
-299 -32 300 0
-299 32 302 0
-3 361 0
-3 4 0
-30 -16 24 0
-30 -24 16 0
-300 -297 301 0
-300 -301 297 0
-302 -46 300 0
-302 46 303 0
-303 -54 300 0
-303 54 304 0
-304 -59 300 0
-304 59 305 0
-305 -63 300 0
-305 63 306 0
-306 -67 300 0
-306 67 307 0
-307 -70 300 0
-307 70 308 0
-308 -73 300 0
-308 73 309 0
-309 -76 310 0
-309 76 311 0
-31 -32 43 0
-31 32 45 0
-310 -24 297 0
-310 -297 24 0
-311 -79 300 0
-311 79 312 0
-312 -81 300 0
-312 81 313 0
-313 -83 314 0
-313 83 296 0
-314 -85 296 0
-314 85 300 0
-315 10 0
-315 316 0
-316 -13 317 0
-316 13 322 0
-317 -23 318 0
-317 23 320 0
-318 -27 319 0
-318 -319 27 0
-32 33 0
-32 41 0
-320 -29 321 0
-320 29 322 0
-321 -32 322 0
-321 32 324 0
-322 -319 323 0
-322 -323 319 0
-324 -46 325 0
-324 46 327 0
-325 -51 326 0
-325 51 322 0
-326 -24 319 0
-326 -319 24 0
-327 -54 318 0
-327 54 328 0
-328 -59 322 0
-328 59 329 0
-329 -63 322 0
-329 63 330 0
-33 34 0
-33 39 0
-330 -67 322 0
-330 67 331 0
-331 -70 332 0
-331 70 333 0
-332 -85 326 0
-332 85 322 0
-333 -73 318 0
-333 73 334 0
-334 -76 322 0
-334 76 335 0
-335 -79 322 0
-335 79 336 0
-336 -81 322 0
-336 81 337 0
-337 -83 322 0
-337 83 318 0
-338 10 0
-338 339 0
-339 -13 340 0
-339 13 348 0
-34 35 0
-34 37 0
-340 -23 341 0
-340 23 343 0
-341 -27 342 0
-341 -342 27 0
-343 -29 344 0
-343 29 348 0
-344 -32 341 0
-344 32 345 0
-345 -46 346 0
-345 46 350 0
-346 -51 347 0
-346 51 348 0
-347 -24 342 0
-347 -342 24 0
-348 -342 349 0
-348 -349 342 0
-35 -27 36 0
-35 -36 27 0
-350 -54 348 0
-350 54 351 0
-351 -59 348 0
-351 59 352 0
-352 -63 348 0
-352 63 353 0
-353 -67 348 0
-353 67 354 0
-354 -70 348 0
-354 70 355 0
-355 -73 348 0
-355 73 356 0
-356 -76 348 0
-356 76 357 0
-357 -79 348 0
-357 79 358 0
-358 -81 348 0
-358 81 359 0
-359 -83 360 0
-359 83 341 0
-360 -85 341 0
-360 85 348 0
-361 10 0
-361 362 0
-362 -13 363 0
-362 13 371 0
-363 -23 364 0
-363 23 366 0
-364 -24 365 0
-364 -365 24 0
-366 -29 367 0
-366 29 371 0
-367 -32 364 0
-367 32 368 0
-368 -46 369 0
-368 46 373 0
-369 -51 370 0
-369 51 371 0
-37 -27 38 0
-37 -38 27 0
-370 -27 365 0
-370 -365 27 0
-371 -365 372 0
-371 -372 365 0
-373 -54 371 0
-373 54 374 0
-374 -59 371 0
-374 59 375 0
-375 -63 371 0
-375 63 376 0
-376 -67 371 0
-376 67 377 0
-377 -70 371 0
-377 70 378 0
-378 -73 371 0
-378 73 379 0
-379 -76 371 0
-379 76 380 0
-380 -79 371 0
-380 79 381 0
-381 -81 371 0
-381 81 382 0
-382 -83 383 0
-382 83 364 0
-383 -85 364 0
-383 85 371 0
-384 10 0
-384 385 0
-385 -13 386 0
-385 13 391 0
-386 -23 387 0
-386 23 389 0
-387 -27 388 0
-387 -388 27 0
-389 -29 390 0
-389 29 391 0
-39 -27 40 0
-39 -40 27 0
-390 -32 391 0
-390 32 393 0
-391 -388 392 0
-391 -392 388 0
-393 -46 391 0
-393 46 394 0
-394 -54 391 0
-394 54 395 0
-395 -59 396 0
-395 59 397 0
-396 -24 388 0
-396 -388 24 0
-397 -63 391 0
-397 63 398 0
-398 -67 391 0
-398 67 399 0
-399 -70 400 0
-399 70 401 0
-4 338 0
-4 5 0
-400 -85 387 0
-400 85 391 0
-401 -73 391 0
-401 73 402 0
-402 -76 391 0
-402 76 403 0
-403 -79 391 0
-403 79 404 0
-404 -81 391 0
-404 81 405 0
-405 -83 391 0
-405 83 387 0
-406 10 0
-406 407 0
-407 -13 408 0
-407 13 413 0
-408 -23 409 0
-408 23 411 0
-409 -27 410 0
-409 -410 27 0
-41 -27 42 0
-41 -42 27 0
-411 -29 412 0
-411 29 413 0
-412 -32 413 0
-412 32 415 0
-413 -410 414 0
-413 -414 410 0
-415 -46 413 0
-415 46 416 0
-416 -54 413 0
-416 54 417 0
-417 -59 413 0
-417 59 418 0
-418 -63 419 0
-418 63 421 0
-419 -213 420 0
-419 213 413 0
-420 -24 410 0
-420 -410 24 0
-421 -67 409 0
-421 67 422 0
-422 -70 413 0
-422 70 423 0
-423 -73 413 0
-423 73 424 0
-424 -76 413 0
-424 76 425 0
-425 -79 419 0
-425 79 426 0
-426 -81 409 0
-426 81 427 0
-427 -83 413 0
-427 83 409 0
-43 -26 44 0
-43 -44 26 0
-45 -46 50 0
-45 46 53 0
-46 41 0
-46 47 0
-47 39 0
-47 48 0
-48 37 0
-48 49 0
-49 -24 36 0
-49 -36 24 0
-5 315 0
-5 6 0
-50 -51 25 0
-50 51 43 0
-51 -24 52 0
-51 -52 24 0
-53 -54 43 0
-53 54 58 0
-54 41 0
-54 55 0
-55 39 0
-55 56 0
-56 35 0
-56 57 0
-57 -24 38 0
-57 -38 24 0
-58 -59 43 0
-58 59 62 0
-59 41 0
-59 60 0
-6 293 0
-6 7 0
-60 39 0
-60 61 0
-61 49 0
-61 57 0
-62 -63 43 0
-62 63 66 0
-63 41 0
-63 64 0
-64 34 0
-64 65 0
-65 -24 40 0
-65 -40 24 0
-66 -67 43 0
-66 67 69 0
-67 41 0
-67 68 0
-68 48 0
-68 65 0
-69 -70 43 0
-69 70 72 0
-7 288 0
-7 8 0
-70 55 0
-70 71 0
-71 -24 42 0
-71 -42 24 0
-72 -73 43 0
-72 73 75 0
-73 41 0
-73 74 0
-74 56 0
-74 65 0
-75 -76 43 0
-75 76 78 0
-76 41 0
-76 77 0
-77 61 0
-77 65 0
-78 -79 43 0
-78 79 80 0
-79 33 0
-79 71 0
-8 267 0
-8 9 0
-80 -81 43 0
-80 81 82 0
-81 47 0
-81 71 0
-82 -83 84 0
-82 83 87 0
-83 60 0
-83 71 0
-84 -85 87 0
-84 85 43 0
-85 -24 86 0
-85 -86 24 0
-87 -24 26 0
-87 -26 24 0
-88 -13 89 0
-88 13 127 0
-89 -23 90 0
-89 23 101 0
-9 10 0
-9 248 0
-90 91 0
-90 99 0
-91 92 0
-91 97 0
-92 93 0
-92 95 0
-93 -27 94 0
-93 -94 27 0
-95 -27 96 0
-95 -96 27 0
-97 -27 98 0
-97 -98 27 0
-99 -100 27 0
-99 -27 100 0
1 -2 -406 0
1 0
10 -11 -170 0
101 -102 -127 0
101 -29 -102 0
101 29 -127 0
102 -103 -114 0
102 -114 -134 0
102 103 -134 0
103 -104 -112 0
104 -105 -110 0
105 -106 -108 0
106 -107 -27 0
106 107 27 0
108 -109 -27 0
108 109 27 0
11 -12 -88 0
110 -111 -27 0
110 111 27 0
112 -113 -27 0
112 113 27 0
114 -115 -123 0
114 -123 -127 0
114 115 -127 0
115 -116 -121 0
116 -117 -119 0
117 -118 -24 0
117 118 24 0
119 -120 -24 0
119 120 24 0
12 -13 -22 0
12 -22 -43 0
12 13 -43 0
121 -122 -24 0
121 122 24 0
123 -124 -99 0
124 -125 -97 0
125 -93 -126 0
126 -96 -24 0
126 96 24 0
127 -128 -133 0
128 -129 -132 0
129 -130 -131 0
13 -14 0
13 -18 0
130 -94 -107 0
130 94 107 0
131 -96 -109 0
131 96 109 0
132 -98 -111 0
132 98 111 0
133 -100 -113 0
133 100 113 0
134 -135 -139 0
134 -139 -144 0
134 135 -144 0
135 -136 -112 0
136 -137 -110 0
137 -106 -138 0
138 -109 -24 0
138 109 24 0
139 -140 -141 0
139 -141 -127 0
139 140 -127 0
14 15 0
140 -120 -27 0
140 120 27 0
141 -142 -99 0
142 -92 -143 0
143 -98 -24 0
143 98 24 0
144 -145 -148 0
144 -148 -155 0
144 145 -155 0
145 -146 -112 0
146 -105 -147 0
147 -111 -24 0
147 111 24 0
148 -149 -151 0
148 -151 -127 0
148 149 -127 0
149 -116 -150 0
15 -16 -17 0
15 16 17 0
150 -122 -27 0
150 122 27 0
151 -152 -99 0
152 -153 -97 0
153 -154 -126 0
154 -94 -24 0
154 94 24 0
155 -156 -160 0
155 -160 -164 0
155 156 -164 0
156 -157 -112 0
157 -158 -110 0
158 -159 -138 0
159 -107 -24 0
159 107 24 0
160 -140 -161 0
160 -161 -127 0
160 140 -127 0
161 -162 -99 0
162 -163 -97 0
163 -154 -95 0
164 -165 -168 0
164 -168 -127 0
164 165 -127 0
165 -166 -112 0
166 -167 -110 0
167 -159 -108 0
168 -169 -90 0
168 -90 -127 0
168 169 -127 0
169 -44 -24 0
169 44 24 0
170 -171 -236 0
171 -13 -172 0
171 -172 -196 0
171 13 -196 0
172 -173 -184 0
172 -23 -173 0
172 23 -184 0
173 -174 -182 0
174 -175 -180 0
175 -176 -178 0
176 -177 -27 0
176 177 27 0
178 -179 -27 0
178 179 27 0
18 19 0
180 -181 -27 0
180 181 27 0
182 -183 -27 0
182 183 27 0
184 -185 -196 0
184 -29 -185 0
184 29 -196 0
185 -186 -190 0
185 -32 -186 0
185 32 -190 0
186 -187 -182 0
187 -188 -180 0
188 -189 -178 0
189 -177 -24 0
189 177 24 0
19 -20 -21 0
19 20 21 0
190 -191 -203 0
190 -46 -191 0
190 46 -203 0
191 -192 -196 0
191 -51 -192 0
191 51 -196 0
192 -193 -182 0
193 -194 -180 0
194 -176 -195 0
195 -179 -24 0
195 179 24 0
196 -197 -202 0
197 -198 -201 0
198 -199 -200 0
199 -177 -36 0
199 177 36 0
2 -3 -384 0
200 -179 -38 0
200 179 38 0
201 -181 -40 0
201 181 40 0
202 -183 -42 0
202 183 42 0
203 -204 -207 0
203 -54 -204 0
203 54 -207 0
204 -205 -182 0
205 -206 -180 0
206 -189 -195 0
207 -208 -211 0
207 -59 -208 0
207 59 -211 0
208 -209 -182 0
209 -175 -210 0
210 -181 -24 0
210 181 24 0
211 -212 -217 0
211 -63 -212 0
211 63 -217 0
212 -213 -215 0
212 -215 -196 0
212 213 -196 0
213 -214 -24 0
213 214 24 0
215 -216 -182 0
216 -188 -210 0
217 -218 -220 0
217 -67 -218 0
217 67 -220 0
218 -193 -219 0
219 -183 -24 0
219 183 24 0
22 -23 -25 0
22 -25 -28 0
22 23 -28 0
220 -221 -224 0
220 -70 -221 0
220 70 -224 0
221 -222 -196 0
221 -85 -222 0
221 85 -196 0
222 -223 -182 0
223 -194 -210 0
224 -225 -227 0
224 -73 -225 0
224 73 -227 0
225 -226 -182 0
226 -206 -210 0
227 -228 -229 0
227 -76 -228 0
227 76 -229 0
228 -174 -219 0
229 -230 -232 0
229 -79 -230 0
229 79 -232 0
23 -20 -24 0
23 20 24 0
230 -213 -231 0
230 -231 -196 0
230 213 -196 0
231 -187 -219 0
232 -233 -234 0
232 -81 -233 0
232 81 -234 0
233 -205 -219 0
234 -235 -196 0
234 -83 -235 0
234 83 -196 0
235 -173 -196 0
235 -85 -173 0
235 85 -196 0
236 -13 -237 0
236 -237 -242 0
236 13 -242 0
237 -23 -238 0
237 -238 -240 0
237 23 -240 0
238 -239 -27 0
238 239 27 0
24 0
240 -241 -242 0
240 -29 -241 0
240 29 -242 0
241 -103 -242 0
241 -242 -243 0
241 103 -243 0
242 -239 -52 0
242 239 52 0
243 -135 -242 0
243 -242 -244 0
243 135 -244 0
244 -145 -242 0
244 -242 -245 0
244 145 -245 0
245 -156 -246 0
245 -246 -247 0
245 156 -247 0
246 -239 -24 0
246 239 24 0
247 -165 -238 0
247 -238 -242 0
247 165 -242 0
248 -13 -249 0
248 -249 -254 0
248 13 -254 0
249 -23 -250 0
249 -250 -252 0
249 23 -252 0
25 -26 -27 0
25 26 27 0
250 -251 -27 0
250 251 27 0
252 -253 -254 0
252 -29 -253 0
252 29 -254 0
253 -254 -256 0
253 -32 -254 0
253 32 -256 0
254 -251 -255 0
254 251 255 0
256 -254 -257 0
256 -46 -254 0
256 46 -257 0
257 -254 -258 0
257 -54 -254 0
257 54 -258 0
258 -254 -259 0
258 -59 -254 0
258 59 -259 0
259 -254 -260 0
259 -63 -254 0
259 63 -260 0
260 -254 -261 0
260 -67 -254 0
260 67 -261 0
261 -254 -262 0
261 -70 -254 0
261 70 -262 0
262 -254 -263 0
262 -73 -254 0
262 73 -263 0
263 -254 -264 0
263 -76 -254 0
263 76 -264 0
264 -254 -265 0
264 -79 -254 0
264 79 -265 0
265 -266 -250 0
265 -81 -266 0
265 81 -250 0
266 -251 -24 0
266 251 24 0
267 -10 -268 0
268 -13 -269 0
268 -269 -274 0
268 13 -274 0
269 -23 -270 0
269 -270 -272 0
269 23 -272 0
270 -271 -27 0
270 271 27 0
272 -273 -274 0
272 -29 -273 0
272 29 -274 0
273 -274 -276 0
273 -32 -274 0
273 32 -276 0
274 -271 -275 0
274 271 275 0
276 -274 -277 0
276 -46 -274 0
276 46 -277 0
277 -274 -278 0
277 -54 -274 0
277 54 -278 0
278 -274 -279 0
278 -59 -274 0
278 59 -279 0
279 -274 -280 0
279 -63 -274 0
279 63 -280 0
28 -29 -31 0
28 -31 -43 0
28 29 -43 0
280 -281 -282 0
280 -67 -281 0
280 67 -282 0
281 -271 -24 0
281 271 24 0
282 -270 -283 0
282 -70 -270 0
282 70 -283 0
283 -274 -284 0
283 -73 -274 0
283 73 -284 0
284 -274 -285 0
284 -76 -274 0
284 76 -285 0
285 -274 -286 0
285 -79 -274 0
285 79 -286 0
286 -274 -287 0
286 -81 -274 0
286 81 -287 0
287 -274 -270 0
287 -83 -274 0
287 83 -270 0
288 -289 -236 0
289 -290 -11 0
29 -14 -30 0
290 -291 -171 0
291 -292 -239 0
291 292 239 0
293 -10 -294 0
294 -13 -295 0
294 -295 -300 0
294 13 -300 0
295 -23 -296 0
295 -296 -298 0
295 23 -298 0
296 -297 -27 0
296 297 27 0
298 -29 -299 0
298 -299 -300 0
298 29 -300 0
299 -300 -302 0
299 -32 -300 0
299 32 -302 0
3 -4 -361 0
30 -16 -24 0
30 16 24 0
300 -297 -301 0
300 297 301 0
302 -300 -303 0
302 -46 -300 0
302 46 -303 0
303 -300 -304 0
303 -54 -300 0
303 54 -304 0
304 -300 -305 0
304 -59 -300 0
304 59 -305 0
305 -300 -306 0
305 -63 -300 0
305 63 -306 0
306 -300 -307 0
306 -67 -300 0
306 67 -307 0
307 -300 -308 0
307 -70 -300 0
307 70 -308 0
308 -300 -309 0
308 -73 -300 0
308 73 -309 0
309 -310 -311 0
309 -76 -310 0
309 76 -311 0
31 -32 -43 0
31 -43 -45 0
31 32 -45 0
310 -297 -24 0
310 297 24 0
311 -300 -312 0
311 -79 -300 0
311 79 -312 0
312 -300 -313 0
312 -81 -300 0
312 81 -313 0
313 -314 -296 0
313 -83 -314 0
313 83 -296 0
314 -296 -300 0
314 -85 -296 0
314 85 -300 0
315 -10 -316 0
316 -13 -317 0
316 -317 -322 0
316 13 -322 0
317 -23 -318 0
317 -318 -320 0
317 23 -320 0
318 -319 -27 0
318 319 27 0
32 -33 -41 0
320 -29 -321 0
320 -321 -322 0
320 29 -322 0
321 -32 -322 0
321 -322 -324 0
321 32 -324 0
322 -319 -323 0
322 319 323 0
324 -325 -327 0
324 -46 -325 0
324 46 -327 0
325 -326 -322 0
325 -51 -326 0
325 51 -322 0
326 -319 -24 0
326 319 24 0
327 -318 -328 0
327 -54 -318 0
327 54 -328 0
328 -322 -329 0
328 -59 -322 0
328 59 -329 0
329 -322 -330 0
329 -63 -322 0
329 63 -330 0
33 -34 -39 0
330 -322 -331 0
330 -67 -322 0
330 67 -331 0
331 -332 -333 0
331 -70 -332 0
331 70 -333 0
332 -326 -322 0
332 -85 -326 0
332 85 -322 0
333 -318 -334 0
333 -73 -318 0
333 73 -334 0
334 -322 -335 0
334 -76 -322 0
334 76 -335 0
335 -322 -336 0
335 -79 -322 0
335 79 -336 0
336 -322 -337 0
336 -81 -322 0
336 81 -337 0
337 -322 -318 0
337 -83 -322 0
337 83 -318 0
338 -10 -339 0
339 -13 -340 0
339 -340 -348 0
339 13 -348 0
34 -35 -37 0
340 -23 -341 0
340 -341 -343 0
340 23 -343 0
341 -342 -27 0
341 342 27 0
343 -29 -344 0
343 -344 -348 0
343 29 -348 0
344 -32 -341 0
344 -341 -345 0
344 32 -345 0
345 -346 -350 0
345 -46 -346 0
345 46 -350 0
346 -347 -348 0
346 -51 -347 0
346 51 -348 0
347 -342 -24 0
347 342 24 0
348 -342 -349 0
348 342 349 0
35 -36 -27 0
35 36 27 0
350 -348 -351 0
350 -54 -348 0
350 54 -351 0
351 -348 -352 0
351 -59 -348 0
351 59 -352 0
352 -348 -353 0
352 -63 -348 0
352 63 -353 0
353 -348 -354 0
353 -67 -348 0
353 67 -354 0
354 -348 -355 0
354 -70 -348 0
354 70 -355 0
355 -348 -356 0
355 -73 -348 0
355 73 -356 0
356 -348 -357 0
356 -76 -348 0
356 76 -357 0
357 -348 -358 0
357 -79 -348 0
357 79 -358 0
358 -348 -359 0
358 -81 -348 0
358 81 -359 0
359 -360 -341 0
359 -83 -360 0
359 83 -341 0
360 -341 -348 0
360 -85 -341 0
360 85 -348 0
361 -10 -362 0
362 -13 -363 0
362 -363 -371 0
362 13 -371 0
363 -23 -364 0
363 -364 -366 0
363 23 -366 0
364 -365 -24 0
364 365 24 0
366 -29 -367 0
366 -367 -371 0
366 29 -371 0
367 -32 -364 0
367 -364 -368 0
367 32 -368 0
368 -369 -373 0
368 -46 -369 0
368 46 -373 0
369 -370 -371 0
369 -51 -370 0
369 51 -371 0
37 -38 -27 0
37 38 27 0
370 -365 -27 0
370 365 27 0
371 -365 -372 0
371 365 372 0
373 -371 -374 0
373 -54 -371 0
373 54 -374 0
374 -371 -375 0
374 -59 -371 0
374 59 -375 0
375 -371 -376 0
375 -63 -371 0
375 63 -376 0
376 -371 -377 0
376 -67 -371 0
376 67 -377 0
377 -371 -378 0
377 -70 -371 0
377 70 -378 0
378 -371 -379 0
378 -73 -371 0
378 73 -379 0
379 -371 -380 0
379 -76 -371 0
379 76 -380 0
380 -371 -381 0
380 -79 -371 0
380 79 -381 0
381 -371 -382 0
381 -81 -371 0
381 81 -382 0
382 -383 -364 0
382 -83 -383 0
382 83 -364 0
383 -364 -371 0
383 -85 -364 0
383 85 -371 0
384 -10 -385 0
385 -13 -386 0
385 -386 -391 0
385 13 -391 0
386 -23 -387 0
386 -387 -389 0
386 23 -389 0
387 -388 -27 0
387 388 27 0
389 -29 -390 0
389 -390 -391 0
389 29 -391 0
39 -40 -27 0
39 40 27 0
390 -32 -391 0
390 -391 -393 0
390 32 -393 0
391 -388 -392 0
391 388 392 0
393 -391 -394 0
393 -46 -391 0
393 46 -394 0
394 -391 -395 0
394 -54 -391 0
394 54 -395 0
395 -396 -397 0
395 -59 -396 0
395 59 -397 0
396 -388 -24 0
396 388 24 0
397 -391 -398 0
397 -63 -391 0
397 63 -398 0
398 -391 -399 0
398 -67 -391 0
398 67 -399 0
399 -400 -401 0
399 -70 -400 0
399 70 -401 0
4 -5 -338 0
400 -387 -391 0
400 -85 -387 0
400 85 -391 0
401 -391 -402 0
401 -73 -391 0
401 73 -402 0
402 -391 -403 0
402 -76 -391 0
402 76 -403 0
403 -391 -404 0
403 -79 -391 0
403 79 -404 0
404 -391 -405 0
404 -81 -391 0
404 81 -405 0
405 -391 -387 0
405 -83 -391 0
405 83 -387 0
406 -10 -407 0
407 -13 -408 0
407 -408 -413 0
407 13 -413 0
408 -23 -409 0
408 -409 -411 0
408 23 -411 0
409 -410 -27 0
409 410 27 0
41 -42 -27 0
41 42 27 0
411 -29 -412 0
411 -412 -413 0
411 29 -413 0
412 -32 -413 0
412 -413 -415 0
412 32 -415 0
413 -410 -414 0
413 410 414 0
415 -413 -416 0
415 -46 -413 0
415 46 -416 0
416 -413 -417 0
416 -54 -413 0
416 54 -417 0
417 -413 -418 0
417 -59 -413 0
417 59 -418 0
418 -419 -421 0
418 -63 -419 0
418 63 -421 0
419 -213 -420 0
419 -420 -413 0
419 213 -413 0
420 -410 -24 0
420 410 24 0
421 -409 -422 0
421 -67 -409 0
421 67 -422 0
422 -413 -423 0
422 -70 -413 0
422 70 -423 0
423 -413 -424 0
423 -73 -413 0
423 73 -424 0
424 -413 -425 0
424 -76 -413 0
424 76 -425 0
425 -419 -426 0
425 -79 -419 0
425 79 -426 0
426 -409 -427 0
426 -81 -409 0
426 81 -427 0
427 -413 -409 0
427 -83 -413 0
427 83 -409 0
43 -26 -44 0
43 26 44 0
45 -46 -50 0
45 -50 -53 0
45 46 -53 0
46 -47 -41 0
47 -48 -39 0
48 -49 -37 0
49 -36 -24 0
49 36 24 0
5 -6 -315 0
50 -25 -43 0
50 -51 -25 0
50 51 -43 0
51 -52 -24 0
51 52 24 0
53 -43 -58 0
53 -54 -43 0
53 54 -58 0
54 -55 -41 0
55 -56 -39 0
56 -35 -57 0
57 -38 -24 0
57 38 24 0
58 -43 -62 0
58 -59 -43 0
58 59 -62 0
59 -60 -41 0
6 -7 -293 0
60 -61 -39 0
61 -49 -57 0
62 -43 -66 0
62 -63 -43 0
62 63 -66 0
63 -64 -41 0
64 -34 -65 0
65 -40 -24 0
65 40 24 0
66 -43 -69 0
66 -67 -43 0
66 67 -69 0
67 -68 -41 0
68 -48 -65 0
69 -43 -72 0
69 -70 -43 0
69 70 -72 0
7 -8 -288 0
70 -55 -71 0
71 -42 -24 0
71 42 24 0
72 -43 -75 0
72 -73 -43 0
72 73 -75 0
73 -74 -41 0
74 -56 -65 0
75 -43 -78 0
75 -76 -43 0
75 76 -78 0
76 -77 -41 0
77 -61 -65 0
78 -43 -80 0
78 -79 -43 0
78 79 -80 0
79 -33 -71 0
8 -9 -267 0
80 -43 -82 0
80 -81 -43 0
80 81 -82 0
81 -47 -71 0
82 -83 -84 0
82 -84 -87 0
82 83 -87 0
83 -60 -71 0
84 -85 -87 0
84 -87 -43 0
84 85 -43 0
85 -86 -24 0
85 86 24 0
87 -26 -24 0
87 26 24 0
88 -13 -89 0
88 -89 -127 0
88 13 -127 0
89 -23 -90 0
89 -90 -101 0
89 23 -101 0
9 -10 -248 0
90 -91 -99 0
91 -92 -97 0
92 -93 -95 0
93 -94 -27 0
93 94 27 0
95 -96 -27 0
95 96 27 0
97 -98 -27 0
97 98 27 0
99 -100 -27 0
99 100 27 0
